computational_data/real_data/lp/iris_trial_016_margin.lp
Maximize
 obj: c_0 +c_1 +c_2 +c_3 +c_4 +c_5 +c_6 +c_7 +c_8 +c_9 +c_10 +c_11 +c_12 +c_13 +c_14 +c_15
  +c_16 +c_17 +c_18 +c_19 +c_20 +c_21 +c_22 +c_23 +c_24 +c_25 +c_26 +c_27 +c_28 +c_29
  +0.001000 r_0 +0.001000 r_1 +0.001000 r_2 +0.001000 r_3 +0.001000 r_4 +0.001000 r_5
  +0.001000 r_6 +0.000967 r_7 +0.000967 r_8 +0.001000 r_9 +0.000967 r_10 +0.000967 r_11
  +0.001000 r_12 +0.000967 r_13 +0.000967 r_14 +0.000967 r_15 +0.001000 r_16
  +0.000967 r_17 +0.001000 r_18 +0.001000 r_19 +0.001000 r_20 +0.001000 b_0 +0.001000 b_1
  +0.001000 b_2 +0.001000 b_3 +0.001000 b_4 +0.001000 b_5 +0.001000 b_6 +0.000967 b_7
  +0.000967 b_8 +0.001000 b_9 +0.000967 b_10 +0.000967 b_11 +0.001000 b_12 +0.000967 b_13
  +0.000967 b_14 +0.000967 b_15 +0.001000 b_16 +0.000967 b_17 +0.001000 b_18
  +0.001000 b_19 +0.001000 b_20
Subject To
 red_nonempty: r_0 +r_1 +r_2 +r_3 +r_4 +r_5 +r_6 +r_7 +r_8 +r_9 +r_10 +r_11 +r_12 +r_13
  +r_14 +r_15 +r_16 +r_17 +r_18 +r_19 +r_20 >= 1
 blue_nonempty: b_0 +b_1 +b_2 +b_3 +b_4 +b_5 +b_6 +b_7 +b_8 +b_9 +b_10 +b_11 +b_12 +b_13
  +b_14 +b_15 +b_16 +b_17 +b_18 +b_19 +b_20 >= 1
 size_ge: r_0 +r_1 +r_2 +r_3 +r_4 +r_5 +r_6 +r_7 +r_8 +r_9 +r_10 +r_11 +r_12 +r_13 +r_14
  +r_15 +r_16 +r_17 +r_18 +r_19 +r_20 +b_0 +b_1 +b_2 +b_3 +b_4 +b_5 +b_6 +b_7 +b_8 +b_9
  +b_10 +b_11 +b_12 +b_13 +b_14 +b_15 +b_16 +b_17 +b_18 +b_19 +b_20 >= 6
 size_le: r_0 +r_1 +r_2 +r_3 +r_4 +r_5 +r_6 +r_7 +r_8 +r_9 +r_10 +r_11 +r_12 +r_13 +r_14
  +r_15 +r_16 +r_17 +r_18 +r_19 +r_20 +b_0 +b_1 +b_2 +b_3 +b_4 +b_5 +b_6 +b_7 +b_8 +b_9
  +b_10 +b_11 +b_12 +b_13 +b_14 +b_15 +b_16 +b_17 +b_18 +b_19 +b_20 <= 6
 disjoint_0: r_0 + b_0 <= 1
 disjoint_1: r_1 + b_1 <= 1
 disjoint_2: r_2 + b_2 <= 1
 disjoint_3: r_3 + b_3 <= 1
 disjoint_4: r_4 + b_4 <= 1
 disjoint_5: r_5 + b_5 <= 1
 disjoint_6: r_6 + b_6 <= 1
 disjoint_7: r_7 + b_7 <= 1
 disjoint_8: r_8 + b_8 <= 1
 disjoint_9: r_9 + b_9 <= 1
 disjoint_10: r_10 + b_10 <= 1
 disjoint_11: r_11 + b_11 <= 1
 disjoint_12: r_12 + b_12 <= 1
 disjoint_13: r_13 + b_13 <= 1
 disjoint_14: r_14 + b_14 <= 1
 disjoint_15: r_15 + b_15 <= 1
 disjoint_16: r_16 + b_16 <= 1
 disjoint_17: r_17 + b_17 <= 1
 disjoint_18: r_18 + b_18 <= 1
 disjoint_19: r_19 + b_19 <= 1
 disjoint_20: r_20 + b_20 <= 1
 red_ind_0: r_0 + r_1 <= 1
 blue_ind_0: b_0 + b_1 <= 1
 red_ind_1: r_0 + r_2 <= 1
 blue_ind_1: b_0 + b_2 <= 1
 red_ind_2: r_0 + r_3 <= 1
 blue_ind_2: b_0 + b_3 <= 1
 red_ind_3: r_0 + r_4 <= 1
 blue_ind_3: b_0 + b_4 <= 1
 red_ind_4: r_0 + r_5 <= 1
 blue_ind_4: b_0 + b_5 <= 1
 red_ind_5: r_0 + r_6 <= 1
 blue_ind_5: b_0 + b_6 <= 1
 red_ind_6: r_0 + r_9 <= 1
 blue_ind_6: b_0 + b_9 <= 1
 red_ind_7: r_0 + r_12 <= 1
 blue_ind_7: b_0 + b_12 <= 1
 red_ind_8: r_0 + r_16 <= 1
 blue_ind_8: b_0 + b_16 <= 1
 red_ind_9: r_0 + r_18 <= 1
 blue_ind_9: b_0 + b_18 <= 1
 red_ind_10: r_0 + r_19 <= 1
 blue_ind_10: b_0 + b_19 <= 1
 red_ind_11: r_0 + r_20 <= 1
 blue_ind_11: b_0 + b_20 <= 1
 red_ind_12: r_1 + r_2 <= 1
 blue_ind_12: b_1 + b_2 <= 1
 red_ind_13: r_1 + r_3 <= 1
 blue_ind_13: b_1 + b_3 <= 1
 red_ind_14: r_1 + r_4 <= 1
 blue_ind_14: b_1 + b_4 <= 1
 red_ind_15: r_1 + r_5 <= 1
 blue_ind_15: b_1 + b_5 <= 1
 red_ind_16: r_1 + r_6 <= 1
 blue_ind_16: b_1 + b_6 <= 1
 red_ind_17: r_1 + r_9 <= 1
 blue_ind_17: b_1 + b_9 <= 1
 red_ind_18: r_1 + r_12 <= 1
 blue_ind_18: b_1 + b_12 <= 1
 red_ind_19: r_1 + r_16 <= 1
 blue_ind_19: b_1 + b_16 <= 1
 red_ind_20: r_1 + r_18 <= 1
 blue_ind_20: b_1 + b_18 <= 1
 red_ind_21: r_1 + r_19 <= 1
 blue_ind_21: b_1 + b_19 <= 1
 red_ind_22: r_1 + r_20 <= 1
 blue_ind_22: b_1 + b_20 <= 1
 red_ind_23: r_2 + r_3 <= 1
 blue_ind_23: b_2 + b_3 <= 1
 red_ind_24: r_2 + r_4 <= 1
 blue_ind_24: b_2 + b_4 <= 1
 red_ind_25: r_2 + r_5 <= 1
 blue_ind_25: b_2 + b_5 <= 1
 red_ind_26: r_2 + r_6 <= 1
 blue_ind_26: b_2 + b_6 <= 1
 red_ind_27: r_2 + r_9 <= 1
 blue_ind_27: b_2 + b_9 <= 1
 red_ind_28: r_2 + r_12 <= 1
 blue_ind_28: b_2 + b_12 <= 1
 red_ind_29: r_2 + r_16 <= 1
 blue_ind_29: b_2 + b_16 <= 1
 red_ind_30: r_2 + r_18 <= 1
 blue_ind_30: b_2 + b_18 <= 1
 red_ind_31: r_2 + r_19 <= 1
 blue_ind_31: b_2 + b_19 <= 1
 red_ind_32: r_2 + r_20 <= 1
 blue_ind_32: b_2 + b_20 <= 1
 red_ind_33: r_3 + r_4 <= 1
 blue_ind_33: b_3 + b_4 <= 1
 red_ind_34: r_3 + r_5 <= 1
 blue_ind_34: b_3 + b_5 <= 1
 red_ind_35: r_3 + r_6 <= 1
 blue_ind_35: b_3 + b_6 <= 1
 red_ind_36: r_3 + r_9 <= 1
 blue_ind_36: b_3 + b_9 <= 1
 red_ind_37: r_3 + r_12 <= 1
 blue_ind_37: b_3 + b_12 <= 1
 red_ind_38: r_3 + r_16 <= 1
 blue_ind_38: b_3 + b_16 <= 1
 red_ind_39: r_3 + r_18 <= 1
 blue_ind_39: b_3 + b_18 <= 1
 red_ind_40: r_3 + r_19 <= 1
 blue_ind_40: b_3 + b_19 <= 1
 red_ind_41: r_3 + r_20 <= 1
 blue_ind_41: b_3 + b_20 <= 1
 red_ind_42: r_4 + r_5 <= 1
 blue_ind_42: b_4 + b_5 <= 1
 red_ind_43: r_4 + r_6 <= 1
 blue_ind_43: b_4 + b_6 <= 1
 red_ind_44: r_4 + r_9 <= 1
 blue_ind_44: b_4 + b_9 <= 1
 red_ind_45: r_4 + r_12 <= 1
 blue_ind_45: b_4 + b_12 <= 1
 red_ind_46: r_4 + r_16 <= 1
 blue_ind_46: b_4 + b_16 <= 1
 red_ind_47: r_4 + r_18 <= 1
 blue_ind_47: b_4 + b_18 <= 1
 red_ind_48: r_4 + r_19 <= 1
 blue_ind_48: b_4 + b_19 <= 1
 red_ind_49: r_4 + r_20 <= 1
 blue_ind_49: b_4 + b_20 <= 1
 red_ind_50: r_5 + r_6 <= 1
 blue_ind_50: b_5 + b_6 <= 1
 red_ind_51: r_5 + r_9 <= 1
 blue_ind_51: b_5 + b_9 <= 1
 red_ind_52: r_5 + r_12 <= 1
 blue_ind_52: b_5 + b_12 <= 1
 red_ind_53: r_5 + r_16 <= 1
 blue_ind_53: b_5 + b_16 <= 1
 red_ind_54: r_5 + r_18 <= 1
 blue_ind_54: b_5 + b_18 <= 1
 red_ind_55: r_5 + r_19 <= 1
 blue_ind_55: b_5 + b_19 <= 1
 red_ind_56: r_5 + r_20 <= 1
 blue_ind_56: b_5 + b_20 <= 1
 red_ind_57: r_6 + r_9 <= 1
 blue_ind_57: b_6 + b_9 <= 1
 red_ind_58: r_6 + r_12 <= 1
 blue_ind_58: b_6 + b_12 <= 1
 red_ind_59: r_6 + r_16 <= 1
 blue_ind_59: b_6 + b_16 <= 1
 red_ind_60: r_6 + r_18 <= 1
 blue_ind_60: b_6 + b_18 <= 1
 red_ind_61: r_6 + r_19 <= 1
 blue_ind_61: b_6 + b_19 <= 1
 red_ind_62: r_6 + r_20 <= 1
 blue_ind_62: b_6 + b_20 <= 1
 red_ind_63: r_7 + r_17 <= 1
 blue_ind_63: b_7 + b_17 <= 1
 red_ind_64: r_7 + r_8 <= 1
 blue_ind_64: b_7 + b_8 <= 1
 red_ind_65: r_7 + r_10 <= 1
 blue_ind_65: b_7 + b_10 <= 1
 red_ind_66: r_7 + r_11 <= 1
 blue_ind_66: b_7 + b_11 <= 1
 red_ind_67: r_7 + r_15 <= 1
 blue_ind_67: b_7 + b_15 <= 1
 red_ind_68: r_8 + r_17 <= 1
 blue_ind_68: b_8 + b_17 <= 1
 red_ind_69: r_8 + r_10 <= 1
 blue_ind_69: b_8 + b_10 <= 1
 red_ind_70: r_8 + r_11 <= 1
 blue_ind_70: b_8 + b_11 <= 1
 red_ind_71: r_8 + r_15 <= 1
 blue_ind_71: b_8 + b_15 <= 1
 red_ind_72: r_9 + r_12 <= 1
 blue_ind_72: b_9 + b_12 <= 1
 red_ind_73: r_9 + r_16 <= 1
 blue_ind_73: b_9 + b_16 <= 1
 red_ind_74: r_9 + r_18 <= 1
 blue_ind_74: b_9 + b_18 <= 1
 red_ind_75: r_9 + r_19 <= 1
 blue_ind_75: b_9 + b_19 <= 1
 red_ind_76: r_9 + r_20 <= 1
 blue_ind_76: b_9 + b_20 <= 1
 red_ind_77: r_10 + r_17 <= 1
 blue_ind_77: b_10 + b_17 <= 1
 red_ind_78: r_10 + r_11 <= 1
 blue_ind_78: b_10 + b_11 <= 1
 red_ind_79: r_10 + r_15 <= 1
 blue_ind_79: b_10 + b_15 <= 1
 red_ind_80: r_11 + r_17 <= 1
 blue_ind_80: b_11 + b_17 <= 1
 red_ind_81: r_11 + r_15 <= 1
 blue_ind_81: b_11 + b_15 <= 1
 red_ind_82: r_12 + r_16 <= 1
 blue_ind_82: b_12 + b_16 <= 1
 red_ind_83: r_12 + r_18 <= 1
 blue_ind_83: b_12 + b_18 <= 1
 red_ind_84: r_12 + r_19 <= 1
 blue_ind_84: b_12 + b_19 <= 1
 red_ind_85: r_12 + r_20 <= 1
 blue_ind_85: b_12 + b_20 <= 1
 red_ind_86: r_13 + r_14 <= 1
 blue_ind_86: b_13 + b_14 <= 1
 red_ind_87: r_15 + r_17 <= 1
 blue_ind_87: b_15 + b_17 <= 1
 red_ind_88: r_16 + r_18 <= 1
 blue_ind_88: b_16 + b_18 <= 1
 red_ind_89: r_16 + r_19 <= 1
 blue_ind_89: b_16 + b_19 <= 1
 red_ind_90: r_16 + r_20 <= 1
 blue_ind_90: b_16 + b_20 <= 1
 red_ind_91: r_18 + r_19 <= 1
 blue_ind_91: b_18 + b_19 <= 1
 red_ind_92: r_18 + r_20 <= 1
 blue_ind_92: b_18 + b_20 <= 1
 red_ind_93: r_19 + r_20 <= 1
 blue_ind_93: b_19 + b_20 <= 1
 red_dom_0: r_1 +r_2 +r_3 +r_4 +r_5 +r_6 +r_9 +r_12 +r_16 +r_18 +r_19 +r_20 +r_0 +b_0 >= 1
 blue_dom_0: b_1 +b_2 +b_3 +b_4 +b_5 +b_6 +b_9 +b_12 +b_16 +b_18 +b_19 +b_20 +r_0 +b_0
  >= 1
 red_dom_1: r_0 +r_2 +r_3 +r_4 +r_5 +r_6 +r_9 +r_12 +r_16 +r_18 +r_19 +r_20 +r_1 +b_1 >= 1
 blue_dom_1: b_0 +b_2 +b_3 +b_4 +b_5 +b_6 +b_9 +b_12 +b_16 +b_18 +b_19 +b_20 +r_1 +b_1
  >= 1
 red_dom_2: r_0 +r_1 +r_3 +r_4 +r_5 +r_6 +r_9 +r_12 +r_16 +r_18 +r_19 +r_20 +r_2 +b_2 >= 1
 blue_dom_2: b_0 +b_1 +b_3 +b_4 +b_5 +b_6 +b_9 +b_12 +b_16 +b_18 +b_19 +b_20 +r_2 +b_2
  >= 1
 red_dom_3: r_0 +r_1 +r_2 +r_4 +r_5 +r_6 +r_9 +r_12 +r_16 +r_18 +r_19 +r_20 +r_3 +b_3 >= 1
 blue_dom_3: b_0 +b_1 +b_2 +b_4 +b_5 +b_6 +b_9 +b_12 +b_16 +b_18 +b_19 +b_20 +r_3 +b_3
  >= 1
 red_dom_4: r_0 +r_1 +r_2 +r_3 +r_5 +r_6 +r_9 +r_12 +r_16 +r_18 +r_19 +r_20 +r_4 +b_4 >= 1
 blue_dom_4: b_0 +b_1 +b_2 +b_3 +b_5 +b_6 +b_9 +b_12 +b_16 +b_18 +b_19 +b_20 +r_4 +b_4
  >= 1
 red_dom_5: r_0 +r_1 +r_2 +r_3 +r_4 +r_6 +r_9 +r_12 +r_16 +r_18 +r_19 +r_20 +r_5 +b_5 >= 1
 blue_dom_5: b_0 +b_1 +b_2 +b_3 +b_4 +b_6 +b_9 +b_12 +b_16 +b_18 +b_19 +b_20 +r_5 +b_5
  >= 1
 red_dom_6: r_0 +r_1 +r_2 +r_3 +r_4 +r_5 +r_9 +r_12 +r_16 +r_18 +r_19 +r_20 +r_6 +b_6 >= 1
 blue_dom_6: b_0 +b_1 +b_2 +b_3 +b_4 +b_5 +b_9 +b_12 +b_16 +b_18 +b_19 +b_20 +r_6 +b_6
  >= 1
 red_dom_7: r_8 +r_10 +r_11 +r_15 +r_17 +r_7 +b_7 >= 1
 blue_dom_7: b_8 +b_10 +b_11 +b_15 +b_17 +r_7 +b_7 >= 1
 red_dom_8: r_7 +r_10 +r_11 +r_15 +r_17 +r_8 +b_8 >= 1
 blue_dom_8: b_7 +b_10 +b_11 +b_15 +b_17 +r_8 +b_8 >= 1
 red_dom_9: r_0 +r_1 +r_2 +r_3 +r_4 +r_5 +r_6 +r_12 +r_16 +r_18 +r_19 +r_20 +r_9 +b_9 >= 1
 blue_dom_9: b_0 +b_1 +b_2 +b_3 +b_4 +b_5 +b_6 +b_12 +b_16 +b_18 +b_19 +b_20 +r_9 +b_9
  >= 1
 red_dom_10: r_7 +r_8 +r_11 +r_15 +r_17 +r_10 +b_10 >= 1
 blue_dom_10: b_7 +b_8 +b_11 +b_15 +b_17 +r_10 +b_10 >= 1
 red_dom_11: r_7 +r_8 +r_10 +r_15 +r_17 +r_11 +b_11 >= 1
 blue_dom_11: b_7 +b_8 +b_10 +b_15 +b_17 +r_11 +b_11 >= 1
 red_dom_12: r_0 +r_1 +r_2 +r_3 +r_4 +r_5 +r_6 +r_9 +r_16 +r_18 +r_19 +r_20 +r_12 +b_12
  >= 1
 blue_dom_12: b_0 +b_1 +b_2 +b_3 +b_4 +b_5 +b_6 +b_9 +b_16 +b_18 +b_19 +b_20 +r_12 +b_12
  >= 1
 red_dom_13: r_14 +r_13 +b_13 >= 1
 blue_dom_13: b_14 +r_13 +b_13 >= 1
 red_dom_14: r_13 +r_14 +b_14 >= 1
 blue_dom_14: b_13 +r_14 +b_14 >= 1
 red_dom_15: r_7 +r_8 +r_10 +r_11 +r_17 +r_15 +b_15 >= 1
 blue_dom_15: b_7 +b_8 +b_10 +b_11 +b_17 +r_15 +b_15 >= 1
 red_dom_16: r_0 +r_1 +r_2 +r_3 +r_4 +r_5 +r_6 +r_9 +r_12 +r_18 +r_19 +r_20 +r_16 +b_16
  >= 1
 blue_dom_16: b_0 +b_1 +b_2 +b_3 +b_4 +b_5 +b_6 +b_9 +b_12 +b_18 +b_19 +b_20 +r_16 +b_16
  >= 1
 red_dom_17: r_7 +r_8 +r_10 +r_11 +r_15 +r_17 +b_17 >= 1
 blue_dom_17: b_7 +b_8 +b_10 +b_11 +b_15 +r_17 +b_17 >= 1
 red_dom_18: r_0 +r_1 +r_2 +r_3 +r_4 +r_5 +r_6 +r_9 +r_12 +r_16 +r_19 +r_20 +r_18 +b_18
  >= 1
 blue_dom_18: b_0 +b_1 +b_2 +b_3 +b_4 +b_5 +b_6 +b_9 +b_12 +b_16 +b_19 +b_20 +r_18 +b_18
  >= 1
 red_dom_19: r_0 +r_1 +r_2 +r_3 +r_4 +r_5 +r_6 +r_9 +r_12 +r_16 +r_18 +r_20 +r_19 +b_19
  >= 1
 blue_dom_19: b_0 +b_1 +b_2 +b_3 +b_4 +b_5 +b_6 +b_9 +b_12 +b_16 +b_18 +b_20 +r_19 +b_19
  >= 1
 red_dom_20: r_0 +r_1 +r_2 +r_3 +r_4 +r_5 +r_6 +r_9 +r_12 +r_16 +r_18 +r_19 +r_20 +b_20
  >= 1
 blue_dom_20: b_0 +b_1 +b_2 +b_3 +b_4 +b_5 +b_6 +b_9 +b_12 +b_16 +b_18 +b_19 +r_20 +b_20
  >= 1
 margin_0_0: 7.000000 c_0 - r_0 - b_0 - r_1 - b_1 - r_2 - b_2 - r_3 - b_3 - r_4 - b_4
  - r_5 - b_5 - r_6 - b_6 - r_7 - b_7 - r_8 - b_8 - r_9 - b_9 - r_10 - b_10 - r_11 - b_11
  - r_12 - b_12 - r_13 - b_13 - r_14 - b_14 - r_15 - b_15 - r_16 - b_16 - r_17 - b_17
  - r_18 - b_18 - r_19 - b_19 - r_20 - b_20 <= 6
 margin_0_1: 7.000000 c_0 - r_0 - b_0 - r_1 - b_1 - r_2 - b_2 - r_3 - b_3 - r_4 - b_4
  - r_5 - b_5 - r_6 - b_6 - r_7 - b_7 - r_8 - b_8 - r_9 - b_9 - r_10 - b_10 - r_11 - b_11
  - r_12 - b_12 - r_13 - b_13 - r_14 - b_14 - r_15 - b_15 - r_16 - b_16 - r_17 - b_17
  - r_18 - b_18 - r_19 - b_19 - r_20 - b_20 <= 6
 margin_1_0: 7.000000 c_1 - r_0 - b_0 - r_1 - b_1 - r_2 - b_2 - r_3 - b_3 - r_4 - b_4
  - r_5 - b_5 - r_6 - b_6 - r_7 - b_7 - r_8 - b_8 - r_9 - b_9 - r_10 - b_10 - r_11 - b_11
  - r_12 - b_12 - r_13 - b_13 - r_14 - b_14 - r_15 - b_15 - r_16 - b_16 - r_17 - b_17
  - r_18 - b_18 - r_19 - b_19 - r_20 - b_20 <= 6
 margin_1_1: 7.000000 c_1 - r_0 - b_0 - r_1 - b_1 - r_2 - b_2 - r_3 - b_3 - r_4 - b_4
  - r_5 - b_5 - r_6 - b_6 - r_7 - b_7 - r_8 - b_8 - r_9 - b_9 - r_10 - b_10 - r_11 - b_11
  - r_12 - b_12 - r_13 - b_13 - r_14 - b_14 - r_15 - b_15 - r_16 - b_16 - r_17 - b_17
  - r_18 - b_18 - r_19 - b_19 - r_20 - b_20 <= 6
 margin_2_0: 7.000000 c_2 - r_0 - b_0 - r_1 - b_1 - r_2 - b_2 - r_3 - b_3 - r_4 - b_4
  - r_5 - b_5 - r_6 - b_6 - r_7 - b_7 - r_8 - b_8 - r_9 - b_9 - r_10 - b_10 - r_11 - b_11
  - r_12 - b_12 - r_13 - b_13 - r_14 - b_14 - r_15 - b_15 - r_16 - b_16 - r_17 - b_17
  - r_18 - b_18 - r_19 - b_19 - r_20 - b_20 <= 6
 margin_2_1: 7.000000 c_2 - r_0 - b_0 - r_1 - b_1 - r_2 - b_2 - r_3 - b_3 - r_4 - b_4
  - r_5 - b_5 - r_6 - b_6 - r_7 - b_7 - r_8 - b_8 - r_9 - b_9 - r_10 - b_10 - r_11 - b_11
  - r_12 - b_12 - r_13 - b_13 - r_14 - b_14 - r_15 - b_15 - r_16 - b_16 - r_17 - b_17
  - r_18 - b_18 - r_19 - b_19 - r_20 - b_20 <= 6
 margin_3_0: 7.000000 c_3 - r_0 - b_0 - r_1 - b_1 - r_2 - b_2 - r_3 - b_3 - r_4 - b_4
  - r_5 - b_5 - r_6 - b_6 - r_7 - b_7 - r_8 - b_8 - r_9 - b_9 - r_10 - b_10 - r_11 - b_11
  - r_12 - b_12 - r_13 - b_13 - r_14 - b_14 - r_15 - b_15 - r_16 - b_16 - r_17 - b_17
  - r_18 - b_18 - r_19 - b_19 - r_20 - b_20 <= 6
 margin_3_1: 7.000000 c_3 - r_0 - b_0 - r_1 - b_1 - r_2 - b_2 - r_3 - b_3 - r_4 - b_4
  - r_5 - b_5 - r_6 - b_6 - r_7 - b_7 - r_8 - b_8 - r_9 - b_9 - r_10 - b_10 - r_11 - b_11
  - r_12 - b_12 - r_13 - b_13 - r_14 - b_14 - r_15 - b_15 - r_16 - b_16 - r_17 - b_17
  - r_18 - b_18 - r_19 - b_19 - r_20 - b_20 <= 6
 margin_4_0: 7.000000 c_4 - r_0 - b_0 - r_1 - b_1 - r_2 - b_2 - r_3 - b_3 - r_4 - b_4
  - r_5 - b_5 - r_6 - b_6 - r_7 - b_7 - r_8 - b_8 - r_9 - b_9 - r_10 - b_10 - r_11 - b_11
  - r_12 - b_12 - r_13 - b_13 - r_14 - b_14 - r_15 - b_15 - r_16 - b_16 - r_17 - b_17
  - r_18 - b_18 - r_19 - b_19 - r_20 - b_20 <= 6
 margin_4_1: 7.000000 c_4 - r_0 - b_0 - r_1 - b_1 - r_2 - b_2 - r_3 - b_3 - r_4 - b_4
  - r_5 - b_5 - r_6 - b_6 - r_7 - b_7 - r_8 - b_8 - r_9 - b_9 - r_10 - b_10 - r_11 - b_11
  - r_12 - b_12 - r_13 - b_13 - r_14 - b_14 - r_15 - b_15 - r_16 - b_16 - r_17 - b_17
  - r_18 - b_18 - r_19 - b_19 - r_20 - b_20 <= 6
 margin_5_0: 7.000000 c_5 - r_0 - b_0 - r_1 - b_1 - r_2 - b_2 - r_3 - b_3 - r_4 - b_4
  - r_5 - b_5 - r_6 - b_6 - r_7 - b_7 - r_8 - b_8 - r_9 - b_9 - r_10 - b_10 - r_11 - b_11
  - r_12 - b_12 - r_13 - b_13 - r_14 - b_14 - r_15 - b_15 - r_16 - b_16 - r_17 - b_17
  - r_18 - b_18 - r_19 - b_19 - r_20 - b_20 <= 6
 margin_5_1: 7.000000 c_5 - r_0 - b_0 - r_1 - b_1 - r_2 - b_2 - r_3 - b_3 - r_4 - b_4
  - r_5 - b_5 - r_6 - b_6 - r_7 - b_7 - r_8 - b_8 - r_9 - b_9 - r_10 - b_10 - r_11 - b_11
  - r_12 - b_12 - r_13 - b_13 - r_14 - b_14 - r_15 - b_15 - r_16 - b_16 - r_17 - b_17
  - r_18 - b_18 - r_19 - b_19 - r_20 - b_20 <= 6
 margin_6_0: 7.000000 c_6 - r_0 - b_0 - r_1 - b_1 - r_2 - b_2 - r_3 - b_3 - r_4 - b_4
  - r_5 - b_5 - r_6 - b_6 - r_7 - b_7 - r_8 - b_8 - r_9 - b_9 - r_10 - b_10 - r_11 - b_11
  - r_12 - b_12 - r_13 - b_13 - r_14 - b_14 - r_15 - b_15 - r_16 - b_16 - r_17 - b_17
  - r_18 - b_18 - r_19 - b_19 - r_20 - b_20 <= 6
 margin_6_1: 7.000000 c_6 - r_0 - b_0 - r_1 - b_1 - r_2 - b_2 - r_3 - b_3 - r_4 - b_4
  - r_5 - b_5 - r_6 - b_6 - r_7 - b_7 - r_8 - b_8 - r_9 - b_9 - r_10 - b_10 - r_11 - b_11
  - r_12 - b_12 - r_13 - b_13 - r_14 - b_14 - r_15 - b_15 - r_16 - b_16 - r_17 - b_17
  - r_18 - b_18 - r_19 - b_19 - r_20 - b_20 <= 6
 margin_7_0: 7.000000 c_7 - r_0 - b_0 - r_1 - b_1 - r_2 - b_2 - r_3 - b_3 - r_4 - b_4
  - r_5 - b_5 - r_6 - b_6 - r_7 - b_7 - r_8 - b_8 - r_9 - b_9 - r_10 - b_10 - r_11 - b_11
  - r_12 - b_12 - r_13 - b_13 - r_14 - b_14 - r_15 - b_15 - r_16 - b_16 - r_17 - b_17
  - r_18 - b_18 - r_19 - b_19 - r_20 - b_20 <= 6
 margin_7_1: 7.000000 c_7 - r_0 - b_0 - r_1 - b_1 - r_2 - b_2 - r_3 - b_3 - r_4 - b_4
  - r_5 - b_5 - r_6 - b_6 - r_7 - b_7 - r_8 - b_8 - r_9 - b_9 - r_10 - b_10 - r_11 - b_11
  - r_12 - b_12 - r_13 - b_13 - r_14 - b_14 - r_15 - b_15 - r_16 - b_16 - r_17 - b_17
  - r_18 - b_18 - r_19 - b_19 - r_20 - b_20 <= 6
 margin_8_0: 7.000000 c_8 - r_0 - b_0 - r_1 - b_1 - r_2 - b_2 - r_3 - b_3 - r_4 - b_4
  - r_5 - b_5 - r_6 - b_6 - r_7 - b_7 - r_8 - b_8 - r_9 - b_9 - r_10 - b_10 - r_11 - b_11
  - r_12 - b_12 - r_13 - b_13 - r_14 - b_14 - r_15 - b_15 - r_16 - b_16 - r_17 - b_17
  - r_18 - b_18 - r_19 - b_19 - r_20 - b_20 <= 6
 margin_8_1: 7.000000 c_8 - r_0 - b_0 - r_1 - b_1 - r_2 - b_2 - r_3 - b_3 - r_4 - b_4
  - r_5 - b_5 - r_6 - b_6 - r_7 - b_7 - r_8 - b_8 - r_9 - b_9 - r_10 - b_10 - r_11 - b_11
  - r_12 - b_12 - r_13 - b_13 - r_14 - b_14 - r_15 - b_15 - r_16 - b_16 - r_17 - b_17
  - r_18 - b_18 - r_19 - b_19 - r_20 - b_20 <= 6
 margin_9_0: 7.000000 c_9 - r_0 - b_0 - r_1 - b_1 - r_2 - b_2 - r_3 - b_3 - r_4 - b_4
  - r_5 - b_5 - r_6 - b_6 - r_7 - b_7 - r_8 - b_8 - r_9 - b_9 - r_10 - b_10 - r_11 - b_11
  - r_12 - b_12 - r_13 - b_13 - r_14 - b_14 - r_15 - b_15 - r_16 - b_16 - r_17 - b_17
  - r_18 - b_18 - r_19 - b_19 - r_20 - b_20 <= 6
 margin_9_1: 7.000000 c_9 - r_0 - b_0 - r_1 - b_1 - r_2 - b_2 - r_3 - b_3 - r_4 - b_4
  - r_5 - b_5 - r_6 - b_6 - r_7 - b_7 - r_8 - b_8 - r_9 - b_9 - r_10 - b_10 - r_11 - b_11
  - r_12 - b_12 - r_13 - b_13 - r_14 - b_14 - r_15 - b_15 - r_16 - b_16 - r_17 - b_17
  - r_18 - b_18 - r_19 - b_19 - r_20 - b_20 <= 6
 margin_10_0: 7.000000 c_10 - r_0 - b_0 - r_1 - b_1 - r_2 - b_2 - r_3 - b_3 - r_4 - b_4
  - r_5 - b_5 - r_6 - b_6 - r_7 - b_7 - r_8 - b_8 - r_9 - b_9 - r_10 - b_10 - r_11 - b_11
  - r_12 - b_12 - r_13 - b_13 - r_14 - b_14 - r_15 - b_15 - r_16 - b_16 - r_17 - b_17
  - r_18 - b_18 - r_19 - b_19 - r_20 - b_20 <= 6
 margin_10_1: 7.000000 c_10 - r_0 - b_0 - r_1 - b_1 - r_2 - b_2 - r_3 - b_3 - r_4 - b_4
  - r_5 - b_5 - r_6 - b_6 - r_7 - b_7 - r_8 - b_8 - r_9 - b_9 - r_10 - b_10 - r_11 - b_11
  - r_12 - b_12 - r_13 - b_13 - r_14 - b_14 - r_15 - b_15 - r_16 - b_16 - r_17 - b_17
  - r_18 - b_18 - r_19 - b_19 - r_20 - b_20 <= 6
 margin_11_0: 7.000000 c_11 - r_0 - b_0 - r_1 - b_1 - r_2 - b_2 - r_3 - b_3 - r_4 - b_4
  - r_5 - b_5 - r_6 - b_6 - r_7 - b_7 - r_8 - b_8 - r_9 - b_9 - r_10 - b_10 - r_11 - b_11
  - r_12 - b_12 - r_13 - b_13 - r_14 - b_14 - r_15 - b_15 - r_16 - b_16 - r_17 - b_17
  - r_18 - b_18 - r_19 - b_19 - r_20 - b_20 <= 6
 margin_11_1: 7.000000 c_11 - r_0 - b_0 - r_1 - b_1 - r_2 - b_2 - r_3 - b_3 - r_4 - b_4
  - r_5 - b_5 - r_6 - b_6 - r_7 - b_7 - r_8 - b_8 - r_9 - b_9 - r_10 - b_10 - r_11 - b_11
  - r_12 - b_12 - r_13 - b_13 - r_14 - b_14 - r_15 - b_15 - r_16 - b_16 - r_17 - b_17
  - r_18 - b_18 - r_19 - b_19 - r_20 - b_20 <= 6
 margin_12_0: 7.000000 c_12 - r_0 - b_0 - r_1 - b_1 - r_2 - b_2 - r_3 - b_3 - r_4 - b_4
  - r_5 - b_5 - r_6 - b_6 - r_7 - b_7 - r_8 - b_8 - r_9 - b_9 - r_10 - b_10 - r_11 - b_11
  - r_12 - b_12 - r_13 - b_13 - r_14 - b_14 - r_15 - b_15 - r_16 - b_16 - r_17 - b_17
  - r_18 - b_18 - r_19 - b_19 - r_20 - b_20 <= 6
 margin_12_1: 7.000000 c_12 - r_0 - b_0 - r_1 - b_1 - r_2 - b_2 - r_3 - b_3 - r_4 - b_4
  - r_5 - b_5 - r_6 - b_6 - r_7 - b_7 - r_8 - b_8 - r_9 - b_9 - r_10 - b_10 - r_11 - b_11
  - r_12 - b_12 - r_13 - b_13 - r_14 - b_14 - r_15 - b_15 - r_16 - b_16 - r_17 - b_17
  - r_18 - b_18 - r_19 - b_19 - r_20 - b_20 <= 6
 margin_13_0: 7.000000 c_13 - r_0 - b_0 - r_1 - b_1 - r_2 - b_2 - r_3 - b_3 - r_4 - b_4
  - r_5 - b_5 - r_6 - b_6 - r_7 - b_7 - r_8 - b_8 - r_9 - b_9 - r_10 - b_10 - r_11 - b_11
  - r_12 - b_12 - r_13 - b_13 - r_14 - b_14 - r_15 - b_15 - r_16 - b_16 - r_17 - b_17
  - r_18 - b_18 - r_19 - b_19 - r_20 - b_20 <= 6
 margin_13_1: 7.000000 c_13 - r_0 - b_0 - r_1 - b_1 - r_2 - b_2 - r_3 - b_3 - r_4 - b_4
  - r_5 - b_5 - r_6 - b_6 - r_7 - b_7 - r_8 - b_8 - r_9 - b_9 - r_10 - b_10 - r_11 - b_11
  - r_12 - b_12 - r_13 - b_13 - r_14 - b_14 - r_15 - b_15 - r_16 - b_16 - r_17 - b_17
  - r_18 - b_18 - r_19 - b_19 - r_20 - b_20 <= 6
 margin_14_0: 7.000000 c_14 - r_0 - b_0 - r_1 - b_1 - r_2 - b_2 - r_3 - b_3 - r_4 - b_4
  - r_5 - b_5 - r_6 - b_6 - r_7 - b_7 - r_8 - b_8 - r_9 - b_9 - r_10 - b_10 - r_11 - b_11
  - r_12 - b_12 - r_13 - b_13 - r_14 - b_14 - r_15 - b_15 - r_16 - b_16 - r_17 - b_17
  - r_18 - b_18 - r_19 - b_19 - r_20 - b_20 <= 6
 margin_14_1: 7.000000 c_14 - r_0 - b_0 - r_1 - b_1 - r_2 - b_2 - r_3 - b_3 - r_4 - b_4
  - r_5 - b_5 - r_6 - b_6 - r_7 - b_7 - r_8 - b_8 - r_9 - b_9 - r_10 - b_10 - r_11 - b_11
  - r_12 - b_12 - r_13 - b_13 - r_14 - b_14 - r_15 - b_15 - r_16 - b_16 - r_17 - b_17
  - r_18 - b_18 - r_19 - b_19 - r_20 - b_20 <= 6
 margin_15_0: 7.000000 c_15 - r_0 - b_0 - r_1 - b_1 - r_2 - b_2 - r_3 - b_3 - r_4 - b_4
  - r_5 - b_5 - r_6 - b_6 - r_7 - b_7 - r_8 - b_8 - r_9 - b_9 - r_10 - b_10 - r_11 - b_11
  - r_12 - b_12 - r_13 - b_13 - r_14 - b_14 - r_15 - b_15 - r_16 - b_16 - r_17 - b_17
  - r_18 - b_18 - r_19 - b_19 - r_20 - b_20 <= 6
 margin_15_1: 7.000000 c_15 - r_0 - b_0 - r_1 - b_1 - r_2 - b_2 - r_3 - b_3 - r_4 - b_4
  - r_5 - b_5 - r_6 - b_6 - r_7 - b_7 - r_8 - b_8 - r_9 - b_9 - r_10 - b_10 - r_11 - b_11
  - r_12 - b_12 - r_13 - b_13 - r_14 - b_14 - r_15 - b_15 - r_16 - b_16 - r_17 - b_17
  - r_18 - b_18 - r_19 - b_19 - r_20 - b_20 <= 6
 margin_16_0: 7.000000 c_16 - r_0 - b_0 - r_1 - b_1 - r_2 - b_2 - r_3 - b_3 - r_4 - b_4
  - r_5 - b_5 - r_6 - b_6 - r_7 - b_7 - r_8 - b_8 - r_9 - b_9 - r_10 - b_10 - r_11 - b_11
  - r_12 - b_12 - r_13 - b_13 - r_14 - b_14 - r_15 - b_15 - r_16 - b_16 - r_17 - b_17
  - r_18 - b_18 - r_19 - b_19 - r_20 - b_20 <= 6
 margin_16_1: 7.000000 c_16 - r_0 - b_0 - r_1 - b_1 - r_2 - b_2 - r_3 - b_3 - r_4 - b_4
  - r_5 - b_5 - r_6 - b_6 - r_7 - b_7 - r_8 - b_8 - r_9 - b_9 - r_10 - b_10 - r_11 - b_11
  - r_12 - b_12 - r_13 - b_13 - r_14 - b_14 - r_15 - b_15 - r_16 - b_16 - r_17 - b_17
  - r_18 - b_18 - r_19 - b_19 - r_20 - b_20 <= 6
 margin_17_0: 7.000000 c_17 - r_0 - b_0 - r_1 - b_1 - r_2 - b_2 - r_3 - b_3 - r_4 - b_4
  - r_5 - b_5 - r_6 - b_6 - r_7 - b_7 - r_8 - b_8 - r_9 - b_9 - r_10 - b_10 - r_11 - b_11
  - r_12 - b_12 - r_13 - b_13 - r_14 - b_14 - r_15 - b_15 - r_16 - b_16 - r_17 - b_17
  - r_18 - b_18 - r_19 - b_19 - r_20 - b_20 <= 6
 margin_17_1: 7.000000 c_17 - r_0 - b_0 - r_1 - b_1 - r_2 - b_2 - r_3 - b_3 - r_4 - b_4
  - r_5 - b_5 - r_6 - b_6 - r_7 - b_7 - r_8 - b_8 - r_9 - b_9 - r_10 - b_10 - r_11 - b_11
  - r_12 - b_12 - r_13 - b_13 - r_14 - b_14 - r_15 - b_15 - r_16 - b_16 - r_17 - b_17
  - r_18 - b_18 - r_19 - b_19 - r_20 - b_20 <= 6
 margin_18_0: 7.000000 c_18 - r_0 - b_0 - r_1 - b_1 - r_2 - b_2 - r_3 - b_3 - r_4 - b_4
  - r_5 - b_5 - r_6 - b_6 - r_7 - b_7 - r_8 - b_8 - r_9 - b_9 - r_10 - b_10 - r_11 - b_11
  - r_12 - b_12 - r_13 - b_13 - r_14 - b_14 - r_15 - b_15 - r_16 - b_16 - r_17 - b_17
  - r_18 - b_18 - r_19 - b_19 - r_20 - b_20 <= 6
 margin_18_1: 7.000000 c_18 - r_0 - b_0 - r_1 - b_1 - r_2 - b_2 - r_3 - b_3 - r_4 - b_4
  - r_5 - b_5 - r_6 - b_6 - r_7 - b_7 - r_8 - b_8 - r_9 - b_9 - r_10 - b_10 - r_11 - b_11
  - r_12 - b_12 - r_13 - b_13 - r_14 - b_14 - r_15 - b_15 - r_16 - b_16 - r_17 - b_17
  - r_18 - b_18 - r_19 - b_19 - r_20 - b_20 <= 6
 margin_19_0: 7.000000 c_19 - r_0 - b_0 - r_1 - b_1 - r_2 - b_2 - r_3 - b_3 - r_4 - b_4
  - r_5 - b_5 - r_6 - b_6 - r_7 - b_7 - r_8 - b_8 - r_9 - b_9 - r_10 - b_10 - r_11 - b_11
  - r_12 - b_12 - r_13 - b_13 - r_14 - b_14 - r_15 - b_15 - r_16 - b_16 - r_17 - b_17
  - r_18 - b_18 - r_19 - b_19 - r_20 - b_20 <= 6
 margin_19_1: 7.000000 c_19 - r_0 - b_0 - r_1 - b_1 - r_2 - b_2 - r_3 - b_3 - r_4 - b_4
  - r_5 - b_5 - r_6 - b_6 - r_7 - b_7 - r_8 - b_8 - r_9 - b_9 - r_10 - b_10 - r_11 - b_11
  - r_12 - b_12 - r_13 - b_13 - r_14 - b_14 - r_15 - b_15 - r_16 - b_16 - r_17 - b_17
  - r_18 - b_18 - r_19 - b_19 - r_20 - b_20 <= 6
 margin_20_0: 7.000000 c_20 - r_0 - b_0 - r_1 - b_1 - r_2 - b_2 - r_3 - b_3 - r_4 - b_4
  - r_5 - b_5 - r_6 - b_6 - r_7 - b_7 - r_8 - b_8 - r_9 - b_9 - r_10 - b_10 - r_11 - b_11
  - r_12 - b_12 - r_13 - b_13 - r_14 - b_14 - r_15 - b_15 - r_16 - b_16 - r_17 - b_17
  - r_18 - b_18 - r_19 - b_19 - r_20 - b_20 <= 6
 margin_20_1: 7.000000 c_20 - r_0 - b_0 - r_1 - b_1 - r_2 - b_2 - r_3 - b_3 - r_4 - b_4
  - r_5 - b_5 - r_6 - b_6 - r_7 - b_7 - r_8 - b_8 - r_9 - b_9 - r_10 - b_10 - r_11 - b_11
  - r_12 - b_12 - r_13 - b_13 - r_14 - b_14 - r_15 - b_15 - r_16 - b_16 - r_17 - b_17
  - r_18 - b_18 - r_19 - b_19 - r_20 - b_20 <= 6
 margin_21_0: 7.000000 c_21 - r_0 - b_0 - r_1 - b_1 - r_2 - b_2 - r_3 - b_3 - r_4 - b_4
  - r_5 - b_5 - r_6 - b_6 - r_7 - b_7 - r_8 - b_8 - r_9 - b_9 - r_10 - b_10 - r_11 - b_11
  - r_12 - b_12 - r_13 - b_13 - r_14 - b_14 - r_15 - b_15 - r_16 - b_16 - r_17 - b_17
  - r_18 - b_18 - r_19 - b_19 - r_20 - b_20 <= 6
 margin_21_1: 7.000000 c_21 - r_0 - b_0 - r_1 - b_1 - r_2 - b_2 - r_3 - b_3 - r_4 - b_4
  - r_5 - b_5 - r_6 - b_6 - r_7 - b_7 - r_8 - b_8 - r_9 - b_9 - r_10 - b_10 - r_11 - b_11
  - r_12 - b_12 - r_13 - b_13 - r_14 - b_14 - r_15 - b_15 - r_16 - b_16 - r_17 - b_17
  - r_18 - b_18 - r_19 - b_19 - r_20 - b_20 <= 6
 margin_22_0: 7.000000 c_22 - r_0 - b_0 - r_1 - b_1 - r_2 - b_2 - r_3 - b_3 - r_4 - b_4
  - r_5 - b_5 - r_6 - b_6 - r_7 - b_7 - r_8 - b_8 - r_9 - b_9 - r_10 - b_10 - r_11 - b_11
  - r_12 - b_12 - r_13 - b_13 - r_14 - b_14 - r_15 - b_15 - r_16 - b_16 - r_17 - b_17
  - r_18 - b_18 - r_19 - b_19 - r_20 - b_20 <= 6
 margin_22_1: 7.000000 c_22 - r_0 - b_0 - r_1 - b_1 - r_2 - b_2 - r_3 - b_3 - r_4 - b_4
  - r_5 - b_5 - r_6 - b_6 - r_7 - b_7 - r_8 - b_8 - r_9 - b_9 - r_10 - b_10 - r_11 - b_11
  - r_12 - b_12 - r_13 - b_13 - r_14 - b_14 - r_15 - b_15 - r_16 - b_16 - r_17 - b_17
  - r_18 - b_18 - r_19 - b_19 - r_20 - b_20 <= 6
 margin_23_0: 7.000000 c_23 - r_0 - b_0 - r_1 - b_1 - r_2 - b_2 - r_3 - b_3 - r_4 - b_4
  - r_5 - b_5 - r_6 - b_6 - r_9 - b_9 - r_12 - b_12 - r_13 - b_13 - r_14 - b_14 - r_16
  - b_16 - r_18 - b_18 - r_19 - b_19 - r_20 - b_20 <= 6
 margin_23_1: 7.000000 c_23 - r_0 - b_0 - r_1 - b_1 - r_2 - b_2 - r_3 - b_3 - r_4 - b_4
  - r_5 - b_5 - r_6 - b_6 + r_7 + b_7 + r_8 + b_8 - r_9 - b_9 + r_10 + b_10 + r_11 + b_11
  - r_12 - b_12 - r_13 - b_13 - r_14 - b_14 + r_15 + b_15 - r_16 - b_16 + r_17 + b_17
  - r_18 - b_18 - r_19 - b_19 - r_20 - b_20 <= 6
 margin_24_0: 7.000000 c_24 - r_0 - b_0 - r_1 - b_1 - r_2 - b_2 - r_3 - b_3 - r_4 - b_4
  - r_5 - b_5 - r_6 - b_6 - r_7 - b_7 - r_8 - b_8 - r_9 - b_9 - r_10 - b_10 - r_11 - b_11
  - r_12 - b_12 - r_13 - b_13 - r_14 - b_14 - r_15 - b_15 - r_16 - b_16 - r_17 - b_17
  - r_18 - b_18 - r_19 - b_19 - r_20 - b_20 <= 6
 margin_24_1: 7.000000 c_24 - r_0 - b_0 - r_1 - b_1 - r_2 - b_2 - r_3 - b_3 - r_4 - b_4
  - r_5 - b_5 - r_6 - b_6 - r_7 - b_7 - r_8 - b_8 - r_9 - b_9 - r_10 - b_10 - r_11 - b_11
  - r_12 - b_12 - r_13 - b_13 - r_14 - b_14 - r_15 - b_15 - r_16 - b_16 - r_17 - b_17
  - r_18 - b_18 - r_19 - b_19 - r_20 - b_20 <= 6
 margin_25_0: 7.000000 c_25 - r_0 - b_0 - r_1 - b_1 - r_2 - b_2 - r_3 - b_3 - r_4 - b_4
  - r_5 - b_5 - r_6 - b_6 - r_7 - b_7 - r_8 - b_8 - r_9 - b_9 - r_10 - b_10 - r_11 - b_11
  - r_12 - b_12 - r_13 - b_13 - r_14 - b_14 - r_15 - b_15 - r_16 - b_16 - r_17 - b_17
  - r_18 - b_18 - r_19 - b_19 - r_20 - b_20 <= 6
 margin_25_1: 7.000000 c_25 - r_0 - b_0 - r_1 - b_1 - r_2 - b_2 - r_3 - b_3 - r_4 - b_4
  - r_5 - b_5 - r_6 - b_6 - r_7 - b_7 - r_8 - b_8 - r_9 - b_9 - r_10 - b_10 - r_11 - b_11
  - r_12 - b_12 - r_13 - b_13 - r_14 - b_14 - r_15 - b_15 - r_16 - b_16 - r_17 - b_17
  - r_18 - b_18 - r_19 - b_19 - r_20 - b_20 <= 6
 margin_26_0: 7.000000 c_26 - r_0 - b_0 - r_1 - b_1 - r_2 - b_2 - r_3 - b_3 - r_4 - b_4
  - r_5 - b_5 - r_6 - b_6 - r_7 - b_7 - r_8 - b_8 - r_9 - b_9 - r_10 - b_10 - r_11 - b_11
  - r_12 - b_12 - r_13 - b_13 - r_14 - b_14 - r_15 - b_15 - r_16 - b_16 - r_17 - b_17
  - r_18 - b_18 - r_19 - b_19 - r_20 - b_20 <= 6
 margin_26_1: 7.000000 c_26 - r_0 - b_0 - r_1 - b_1 - r_2 - b_2 - r_3 - b_3 - r_4 - b_4
  - r_5 - b_5 - r_6 - b_6 - r_7 - b_7 - r_8 - b_8 - r_9 - b_9 - r_10 - b_10 - r_11 - b_11
  - r_12 - b_12 - r_13 - b_13 - r_14 - b_14 - r_15 - b_15 - r_16 - b_16 - r_17 - b_17
  - r_18 - b_18 - r_19 - b_19 - r_20 - b_20 <= 6
 margin_27_0: 7.000000 c_27 - r_0 - b_0 - r_1 - b_1 - r_2 - b_2 - r_3 - b_3 - r_4 - b_4
  - r_5 - b_5 - r_6 - b_6 - r_7 - b_7 - r_8 - b_8 - r_9 - b_9 - r_10 - b_10 - r_11 - b_11
  - r_12 - b_12 - r_13 - b_13 - r_14 - b_14 - r_15 - b_15 - r_16 - b_16 - r_17 - b_17
  - r_18 - b_18 - r_19 - b_19 - r_20 - b_20 <= 6
 margin_27_1: 7.000000 c_27 - r_0 - b_0 - r_1 - b_1 - r_2 - b_2 - r_3 - b_3 - r_4 - b_4
  - r_5 - b_5 - r_6 - b_6 - r_7 - b_7 - r_8 - b_8 - r_9 - b_9 - r_10 - b_10 - r_11 - b_11
  - r_12 - b_12 - r_13 - b_13 - r_14 - b_14 - r_15 - b_15 - r_16 - b_16 - r_17 - b_17
  - r_18 - b_18 - r_19 - b_19 - r_20 - b_20 <= 6
 margin_28_0: 7.000000 c_28 - r_0 - b_0 - r_1 - b_1 - r_2 - b_2 - r_3 - b_3 - r_4 - b_4
  - r_5 - b_5 - r_6 - b_6 - r_7 - b_7 - r_8 - b_8 - r_9 - b_9 - r_10 - b_10 - r_11 - b_11
  - r_12 - b_12 - r_13 - b_13 - r_14 - b_14 - r_15 - b_15 - r_16 - b_16 - r_17 - b_17
  - r_18 - b_18 - r_19 - b_19 - r_20 - b_20 <= 6
 margin_28_1: 7.000000 c_28 - r_0 - b_0 - r_1 - b_1 - r_2 - b_2 - r_3 - b_3 - r_4 - b_4
  - r_5 - b_5 - r_6 - b_6 - r_7 - b_7 - r_8 - b_8 - r_9 - b_9 - r_10 - b_10 - r_11 - b_11
  - r_12 - b_12 - r_13 - b_13 - r_14 - b_14 - r_15 - b_15 - r_16 - b_16 - r_17 - b_17
  - r_18 - b_18 - r_19 - b_19 - r_20 - b_20 <= 6
 margin_29_0: 7.000000 c_29 - r_0 - b_0 - r_1 - b_1 - r_2 - b_2 - r_3 - b_3 - r_4 - b_4
  - r_5 - b_5 - r_6 - b_6 - r_7 - b_7 - r_8 - b_8 - r_9 - b_9 - r_10 - b_10 - r_11 - b_11
  - r_12 - b_12 - r_15 - b_15 - r_16 - b_16 - r_17 - b_17 - r_18 - b_18 - r_19 - b_19
  - r_20 - b_20 <= 6
 margin_29_1: 7.000000 c_29 - r_0 - b_0 - r_1 - b_1 - r_2 - b_2 - r_3 - b_3 - r_4 - b_4
  - r_5 - b_5 - r_6 - b_6 - r_7 - b_7 - r_8 - b_8 - r_9 - b_9 - r_10 - b_10 - r_11 - b_11
  - r_12 - b_12 + r_13 + b_13 + r_14 + b_14 - r_15 - b_15 - r_16 - b_16 - r_17 - b_17
  - r_18 - b_18 - r_19 - b_19 - r_20 - b_20 <= 6
Binary
 r_0
 r_1
 r_2
 r_3
 r_4
 r_5
 r_6
 r_7
 r_8
 r_9
 r_10
 r_11
 r_12
 r_13
 r_14
 r_15
 r_16
 r_17
 r_18
 r_19
 r_20
 b_0
 b_1
 b_2
 b_3
 b_4
 b_5
 b_6
 b_7
 b_8
 b_9
 b_10
 b_11
 b_12
 b_13
 b_14
 b_15
 b_16
 b_17
 b_18
 b_19
 b_20
 c_0
 c_1
 c_2
 c_3
 c_4
 c_5
 c_6
 c_7
 c_8
 c_9
 c_10
 c_11
 c_12
 c_13
 c_14
 c_15
 c_16
 c_17
 c_18
 c_19
 c_20
 c_21
 c_22
 c_23
 c_24
 c_25
 c_26
 c_27
 c_28
 c_29
End
